20
11 16
11 3
11 7
11 0
11 9
11 18
11 5
11 17
16 12
16 13
16 3
16 8
16 4
16 9
16 15
4 7
4 8
4 12
4 19
4 13
4 0
4 6
7 12
7 6
7 10
7 14
7 2
7 5
1 3
1 15
1 6
1 14
1 5
1 10
1 9
1 8
3 14
3 13
3 9
3 2
3 19
8 9
8 19
8 14
8 15
8 17
12 2
12 13
12 18
12 6
12 19
0 14
0 10
0 15
0 17
0 13
0 9
14 18
14 9
14 2
6 10
6 17
6 18
6 13
10 15
10 18
10 19
10 5
5 13
5 2
5 18
5 15
13 2
15 18
15 17
9 19
19 2
19 17
2 17
17 18
